QBPP_HJ*_45_025_20_2
45 110 31
35 40 41 6 2 28 26 16 5 10 11 30 10 46 29 46 9 39 21 27 1 44 44 18 14 8 11 19 35 38 46 34 15 17 21 26 21 6 18 9 37 24 33 50 28
    0    0    0    0    0    0    0  -37    0    0    0    0    0    0    0    0    0    0    0    0    0    0    0    0   29    0  -27    0  -29    0   26    0    0  -13   21    0    0    0  -11    0    0    0   -9    0    0
    0    0  -40    0    0    0    0    0    0    0  -31    0    0    0    0   20    0    0    0    0    0  -18    0    0    0    0    0    0    0    0    0    0    0    0    0    0    0    0    0   14    0    0    0    0    0
    0  -40    0    0    0   23    0    0    0  -28   14   -6    0    0  -36   38    0    0    0    0    0    0    0    0    0    0    0    0    0  -27    0  -27    0    0    0    0    0    7    0    0    0   42    0  -23    0
    0    0    0    0    0    0    0    0  -25    0    0    0    0    0  -22   46   41    0    0    0    0    0  -43    0    0   44    0   47    0    5    0    0    0    0    0  -19   34    0    0    0    0    0   36   47    0
    0    0    0    0    0    0   41    0    0    0    0    0   47    0    2    0  -38    0    0    0    0    0    0    0  -13    0  -15    2  -35    0    0    0    0    0    0    0   38    0    0    0    0  -45    0    0    0
    0    0   23    0    0    0    0    0    0    0    0    0    0    0    0    0    0    0  -10   15    0   22    0    0    0    0    0    0   -1    0  -16    0    0   11   19   15    0    1    0    0    0    0    0    0    0
    0    0    0    0   41    0    0   43    0   42   20   23    0    0    0  -40    0    5    0    0    0    0    0    8    0    0    0    0   36    0    0    0  -12    0   41    0    0    0    0    0    0    0   12    0   31
  -37    0    0    0    0    0   43    0    0    0    0  -42    0    0    0    0    0    0    0    0    0    0    0    0    0    0    0    6    0    0   23    0  -26    0    0    0    1    0    0  -12    0    0   -6    0    0
    0    0    0  -25    0    0    0    0    0    0    0    0    0    0    0  -38    0    0    0    0    0    0    0    0    0    0    0  -21    0    0    0    0    0   50    0    0    0    0    0    0    0    0    0    0    0
    0    0  -28    0    0    0   42    0    0    0    0    0    0  -21    0   29    0   -5    0    0  -42    0    0    0   17   31    0    0    0    0  -50    0    0   25    0    0    0    0    0    0    0    0  -12   28    0
    0  -31   14    0    0    0   20    0    0    0    0    0    0  -33    0    0    0    0   26    0   45   23    0    0    0   38    0   -5  -37    0    0    0    0    0    0    0   47    0  -16    0    0    0    0    0   36
    0    0   -6    0    0    0   23  -42    0    0    0    0    0    0    0    0    0    0    0    0    0   48    0    9    0    0  -29    0    0    0  -22    0    0    0    0    0    0   26    0    0   26    8    0    0    0
    0    0    0    0   47    0    0    0    0    0    0    0    0    0    0    0    4    3    0    0  -26    0   48  -26    0    0    0    0    0    0    0    0    0    0  -18    1    0    0    0    0    0    0    0    0    0
    0    0    0    0    0    0    0    0    0  -21  -33    0    0    0  -42    0    0    0    0    0   40    0    0    0    0    0    0    0    0   22    0   30    0    0    0    0    0    0    0    0    0  -34    0   -9    0
    0    0  -36  -22    2    0    0    0    0    0    0    0    0  -42    0   25   25    0    0    0    0    0    0    0  -46    0    0    0  -32   -4    0    0   37    0    0    0    0    0    0    0    0    0    0    0    0
    0   20   38   46    0    0  -40    0  -38   29    0    0    0    0   25    0   21    0    0    0    0    0    0    0    0    0    0   24    0    0    0    0    0    0    0    0    6    0    0  -11    0    0    0   -1   14
    0    0    0   41  -38    0    0    0    0    0    0    0    4    0   25   21    0    0    0    0    0    0    0    0    0    0    0    0    0   33  -41    1    0    0    0    0    0  -47    0    0    0    5    0   -1    0
    0    0    0    0    0    0    5    0    0   -5    0    0    3    0    0    0    0    0    0    0    0  -39    0    0    6    0   25    0    0    0    0    0    0    0  -49    0    0    0    0    0    0    0    0    0    0
    0    0    0    0    0  -10    0    0    0    0   26    0    0    0    0    0    0    0    0    0    0    0    0    0    0    0    0    0   23  -46    0  -22    0  -18    0    0    0    0    0    0    0    0   16  -21   15
    0    0    0    0    0   15    0    0    0    0    0    0    0    0    0    0    0    0    0    0    0   -4  -24    0    0  -35  -46    0  -39    0    0   20   15    0  -11    0   47    0    0    0   44    0    0    0   -8
    0    0    0    0    0    0    0    0    0  -42   45    0  -26   40    0    0    0    0    0    0    0    0    0    0   46    0    0  -16  -34   31    0    0    0    0  -10    0   43    0    0    0    0    0    0    0    0
    0  -18    0    0    0   22    0    0    0    0   23   48    0    0    0    0    0  -39    0   -4    0    0    0    0    0    0    0    0    0    0    0    0    0    0    0    0    0    0    0  -42    0   -5    0   31    0
    0    0    0  -43    0    0    0    0    0    0    0    0   48    0    0    0    0    0    0  -24    0    0    0    0  -23    0    0    0   -8    0    0    0    0   17  -21    0  -39    0   -1  -13    0  -30    0    0  -40
    0    0    0    0    0    0    8    0    0    0    0    9  -26    0    0    0    0    0    0    0    0    0    0    0    0    0  -33    0    0    0    0  -39    0   15    0   32    0    0    0    0    0    0    0    0    0
   29    0    0    0  -13    0    0    0    0   17    0    0    0    0  -46    0    0    6    0    0   46    0  -23    0    0    0    0    0  -43    0   -4    0  -33    0    0  -34    0    0    0    0  -19    0  -44    0    0
    0    0    0   44    0    0    0    0    0   31   38    0    0    0    0    0    0    0    0  -35    0    0    0    0    0    0    0   -2  -17    0    0    0   13    0   35    0    0    0    0    0    0    0   11    0    0
  -27    0    0    0  -15    0    0    0    0    0    0  -29    0    0    0    0    0   25    0  -46    0    0    0  -33    0    0    0    0    0    0    0    0    0    0   35    0    0    0    0    0   26    0  -46    0   41
    0    0    0   47    2    0    0    6  -21    0   -5    0    0    0    0   24    0    0    0    0  -16    0    0    0    0   -2    0    0    0    0    0    0    0    0    0    0    0    0    0   28    0    0   -1    0  -10
  -29    0    0    0  -35   -1   36    0    0    0  -37    0    0    0  -32    0    0    0   23  -39  -34    0   -8    0  -43  -17    0    0    0    0    0    0    0    0   32    0    0    0    0    0    0    0    0    0  -35
    0    0  -27    5    0    0    0    0    0    0    0    0    0   22   -4    0   33    0  -46    0   31    0    0    0    0    0    0    0    0    0    0    2   50    0    0    0    0    0    0    0    0   45   35    0    0
   26    0    0    0    0  -16    0   23    0  -50    0  -22    0    0    0    0  -41    0    0    0    0    0    0    0   -4    0    0    0    0    0    0    0  -13    0  -29    0  -22    0  -34    0    0    0    0    0    0
    0    0  -27    0    0    0    0    0    0    0    0    0    0   30    0    0    1    0  -22   20    0    0    0  -39    0    0    0    0    0    2    0    0    0  -34    0   23    0    0    0    0   23    0    0    0    0
    0    0    0    0    0    0  -12  -26    0    0    0    0    0    0   37    0    0    0    0   15    0    0    0    0  -33   13    0    0    0   50  -13    0    0    0    0    0    0    0    0   39    0    0    0    0    0
  -13    0    0    0    0   11    0    0   50   25    0    0    0    0    0    0    0    0  -18    0    0    0   17   15    0    0    0    0    0    0    0  -34    0    0  -17    0  -28    0    0    0   -7    0    0    0    0
   21    0    0    0    0   19   41    0    0    0    0    0  -18    0    0    0    0  -49    0  -11  -10    0  -21    0    0   35   35    0   32    0  -29    0    0  -17    0    0    0    0    0    0    0    0    0    0    0
    0    0    0  -19    0   15    0    0    0    0    0    0    1    0    0    0    0    0    0    0    0    0    0   32  -34    0    0    0    0    0    0   23    0    0    0    0    0   48    0    0    0    0   20    0    0
    0    0    0   34   38    0    0    1    0    0   47    0    0    0    0    6    0    0    0   47   43    0  -39    0    0    0    0    0    0    0  -22    0    0  -28    0    0    0    0    0    0    0    0    0    0   29
    0    0    7    0    0    1    0    0    0    0    0   26    0    0    0    0  -47    0    0    0    0    0    0    0    0    0    0    0    0    0    0    0    0    0    0   48    0    0    0  -31    0    0    0    0    0
  -11    0    0    0    0    0    0    0    0    0  -16    0    0    0    0    0    0    0    0    0    0    0   -1    0    0    0    0    0    0    0  -34    0    0    0    0    0    0    0    0    0    0    0    0    0    0
    0   14    0    0    0    0    0  -12    0    0    0    0    0    0    0  -11    0    0    0    0    0  -42  -13    0    0    0    0   28    0    0    0    0   39    0    0    0    0  -31    0    0    0    0    0    0  -33
    0    0    0    0    0    0    0    0    0    0    0   26    0    0    0    0    0    0    0   44    0    0    0    0  -19    0   26    0    0    0    0   23    0   -7    0    0    0    0    0    0    0   36  -50    0    0
    0    0   42    0  -45    0    0    0    0    0    0    8    0  -34    0    0    5    0    0    0    0   -5  -30    0    0    0    0    0    0   45    0    0    0    0    0    0    0    0    0    0   36    0    0   41    0
   -9    0    0   36    0    0   12   -6    0  -12    0    0    0    0    0    0    0    0   16    0    0    0    0    0  -44   11  -46   -1    0   35    0    0    0    0    0   20    0    0    0    0  -50    0    0    0   13
    0    0  -23   47    0    0    0    0    0   28    0    0    0   -9    0   -1   -1    0  -21    0    0   31    0    0    0    0    0    0    0    0    0    0    0    0    0    0    0    0    0    0    0   41    0    0    0
    0    0    0    0    0    0   31    0    0    0   36    0    0    0    0   14    0    0   15   -8    0    0  -40    0    0    0   41  -10  -35    0    0    0    0    0    0    0   29    0    0  -33    0    0   13    0    0
